QBPP_HJ-_45_025_10_3
45 217 282
3 12 29 43 34 8 12 28 30 20 44 2 15 39 11 36 20 23 47 6 6 34 2 30 22 15 47 4 29 29 40 18 18 21 38 40 45 1 3 5 19 50 43 31 30
     0     0   -41     0   -47     0     0     0     0     0     0     0     0     0     0     0     0     0     0     0     0   -12     0     0     0     0     0     0     0     0     0     0     0     0     0    -6   -55     0     0     0   -22     0     0     0     0
     0     0   -95     0     0     0     0     0     0   -95   -73     0     0   -69     0     0     0     0   -20     0   -97     0     0     0     0   -31     0     0     0     0     0    -6     0     0     0     0     0   -43     0     0     0     0     0     0     0
   -41   -95     0     0   -31     0     0     0     0     0     0     0     0     0     0     0     0     0   -78     0   -60     0   -83     0     0     0     0     0     0     0     0   -40   -98     0     0     0     0     0     0   -98     0     0     0     0     0
     0     0     0     0   -62     0     0     0   -75   -68     0     0   -99     0     0   -85     0  -100     0     0     0     0     0     0     0     0     0     0     0     0     0     0     0   -88     0   -97   -73     0     0   -77     0     0     0    -5     0
   -47     0   -31   -62     0     0    -5     0     0   -26   -49    -4     0     0     0     0     0     0   -28     0     0     0     0     0   -49     0     0     0     0     0     0     0     0     0     0     0     0     0     0   -70     0     0     0     0     0
     0     0     0     0     0     0   -19     0     0   -44     0     0     0     0     0     0     0     0     0     0     0   -92     0     0     0     0     0   -80     0     0     0     0   -99   -65     0     0    -4     0   -54     0   -87     0   -21   -69    -5
     0     0     0     0    -5   -19     0     0     0     0     0   -97   -39     0     0    -2   -16   -90     0     0     0     0   -19     0     0     0     0     0   -13     0   -87     0     0     0     0     0   -32     0     0     0     0     0     0     0     0
     0     0     0     0     0     0     0     0     0   -77   -11     0     0     0   -69   -43     0     0     0     0   -45     0   -54     0     0     0     0   -23     0     0     0     0     0     0     0     0   -52     0     0   -49     0     0     0    -7     0
     0     0     0   -75     0     0     0     0     0     0     0   -66     0     0     0     0   -22     0     0     0   -72     0   -37     0   -24     0   -32   -58     0   -92     0    -3     0     0     0     0     0     0     0     0     0     0     0   -80     0
     0   -95     0   -68   -26   -44     0   -77     0     0   -19   -14     0   -92     0     0     0   -13     0     0   -81     0     0   -85     0   -24     0     0     0     0   -75  -100    -5     0     0     0   -29     0   -57     0     0     0     0     0     0
     0   -73     0     0   -49     0     0   -11     0   -19     0   -14   -20     0     0     0     0   -96     0     0   -38     0   -66   -16     0     0   -77     0     0     0     0   -79     0     0   -58     0     0     0     0     0     0     0     0     0   -80
     0     0     0     0    -4     0   -97     0   -66   -14   -14     0   -50     0     0   -51   -36     0     0     0     0     0     0     0     0   -60   -45     0     0     0   -37     0     0     0     0     0   -95     0     0   -63     0     0     0     0     0
     0     0     0   -99     0     0   -39     0     0     0   -20   -50     0     0     0     0     0     0     0   -53     0     0     0     0     0     0     0     0     0     0     0   -54   -21     0   -80     0     0     0     0   -20     0     0     0   -76     0
     0   -69     0     0     0     0     0     0     0   -92     0     0     0     0     0     0     0     0     0     0     0     0     0     0     0     0     0     0     0     0     0     0     0     0   -36   -10   -69   -77     0     0   -94     0   -51     0     0
     0     0     0     0     0     0     0   -69     0     0     0     0     0     0     0     0     0   -64     0     0     0     0     0     0     0     0     0   -84     0     0   -81     0     0     0     0    -5     0     0     0   -63     0   -16   -61     0     0
     0     0     0   -85     0     0    -2   -43     0     0     0   -51     0     0     0     0     0     0     0     0     0     0     0   -74     0     0     0   -96     0     0   -63   -50     0     0     0     0     0   -59     0     0    -8     0     0     0   -78
     0     0     0     0     0     0   -16     0   -22     0     0   -36     0     0     0     0     0     0     0     0     0     0     0   -58     0     0     0     0     0     0     0     0     0     0    -3     0   -38   -53   -48     0     0   -49     0     0     0
     0     0     0  -100     0     0   -90     0     0   -13   -96     0     0     0   -64     0     0     0     0     0   -20     0   -43     0     0     0    -7   -93     0     0     0     0     0     0   -19     0     0     0     0     0   -40   -63     0     0     0
     0   -20   -78     0   -28     0     0     0     0     0     0     0     0     0     0     0     0     0     0     0     0     0  -100     0     0     0     0    -9     0   -92     0     0     0   -85   -43   -53   -99     0     0     0     0     0     0     0     0
     0     0     0     0     0     0     0     0     0     0     0     0   -53     0     0     0     0     0     0     0   -87   -44     0     0     0     0     0    -4     0     0     0     0     0     0   -36     0     0     0     0     0     0     0     0     0     0
     0   -97   -60     0     0     0     0   -45   -72   -81   -38     0     0     0     0     0     0   -20     0   -87     0     0   -25     0     0     0     0     0     0   -42     0   -22   -55     0   -34   -41     0   -84     0   -21     0     0     0   -75     0
   -12     0     0     0     0   -92     0     0     0     0     0     0     0     0     0     0     0     0     0   -44     0     0     0   -21     0     0     0   -63     0     0  -100     0     0     0     0     0     0     0   -57   -81   -32     0   -13     0     0
     0     0   -83     0     0     0   -19   -54   -37     0   -66     0     0     0     0     0     0   -43  -100     0   -25     0     0     0   -36    -7     0     0     0   -44     0     0   -65     0     0     0   -56   -70     0     0   -87   -77   -24     0   -71
     0     0     0     0     0     0     0     0     0   -85   -16     0     0     0     0   -74   -58     0     0     0     0   -21     0     0     0     0     0     0   -68    -8     0     0     0     0   -61     0  -100     0     0     0   -70     0     0     0     0
     0     0     0     0   -49     0     0     0   -24     0     0     0     0     0     0     0     0     0     0     0     0     0   -36     0     0   -47     0   -46   -98     0     0   -57   -55   -82   -31     0     0     0     0     0     0     0     0   -57     0
     0   -31     0     0     0     0     0     0     0   -24     0   -60     0     0     0     0     0     0     0     0     0     0    -7     0   -47     0     0     0     0     0     0   -33     0     0     0   -11     0     0     0   -69     0     0     0   -53     0
     0     0     0     0     0     0     0     0   -32     0   -77   -45     0     0     0     0     0    -7     0     0     0     0     0     0     0     0     0     0     0     0     0     0     0   -76   -40     0     0     0     0   -35     0   -38     0   -69     0
     0     0     0     0     0   -80     0   -23   -58     0     0     0     0     0   -84   -96     0   -93    -9    -4     0   -63     0     0   -46     0     0     0     0     0     0     0   -34     0     0     0     0     0     0     0     0     0   -76     0     0
     0     0     0     0     0     0   -13     0     0     0     0     0     0     0     0     0     0     0     0     0     0     0     0   -68   -98     0     0     0     0     0    -3     0     0     0     0   -68    -7     0     0     0     0     0   -72   -48   -16
     0     0     0     0     0     0     0     0   -92     0     0     0     0     0     0     0     0     0   -92     0   -42     0   -44    -8     0     0     0     0     0     0   -70   -39     0     0   -40     0   -25     0     0   -13     0     0     0     0     0
     0     0     0     0     0     0   -87     0     0   -75     0   -37     0     0   -81   -63     0     0     0     0     0  -100     0     0     0     0     0     0    -3   -70     0     0   -80     0     0   -48     0     0   -26     0   -44     0     0     0     0
     0    -6   -40     0     0     0     0     0    -3  -100   -79     0   -54     0     0   -50     0     0     0     0   -22     0     0     0   -57   -33     0     0     0   -39     0     0   -96     0     0     0   -58     0     0     0   -99     0   -16     0     0
     0     0   -98     0     0   -99     0     0     0    -5     0     0   -21     0     0     0     0     0     0     0   -55     0   -65     0   -55     0     0   -34     0     0   -80   -96     0     0     0     0     0   -62     0     0   -26     0   -80     0     0
     0     0     0   -88     0   -65     0     0     0     0     0     0     0     0     0     0     0     0   -85     0     0     0     0     0   -82     0   -76     0     0     0     0     0     0     0     0     0     0   -73     0     0     0     0   -20     0     0
     0     0     0     0     0     0     0     0     0     0   -58     0   -80   -36     0     0    -3   -19   -43   -36   -34     0     0   -61   -31     0   -40     0     0   -40     0     0     0     0     0     0   -55   -12     0     0     0     0     0     0   -67
    -6     0     0   -97     0     0     0     0     0     0     0     0     0   -10    -5     0     0     0   -53     0   -41     0     0     0     0   -11     0     0   -68     0   -48     0     0     0     0     0     0     0   -19     0     0     0     0     0     0
   -55     0     0   -73     0    -4   -32   -52     0   -29     0   -95     0   -69     0     0   -38     0   -99     0     0     0   -56  -100     0     0     0     0    -7   -25     0   -58     0     0   -55     0     0     0     0     0   -25     0     0   -29   -30
     0   -43     0     0     0     0     0     0     0     0     0     0     0   -77     0   -59   -53     0     0     0   -84     0   -70     0     0     0     0     0     0     0     0     0   -62   -73   -12     0     0     0   -29     0   -96   -13     0     0     0
     0     0     0     0     0   -54     0     0     0   -57     0     0     0     0     0     0   -48     0     0     0     0   -57     0     0     0     0     0     0     0     0   -26     0     0     0     0   -19     0   -29     0     0   -33   -23     0     0     0
     0     0   -98   -77   -70     0     0   -49     0     0     0   -63   -20     0   -63     0     0     0     0     0   -21   -81     0     0     0   -69   -35     0     0   -13     0     0     0     0     0     0     0     0     0     0   -24   -48     0     0     0
   -22     0     0     0     0   -87     0     0     0     0     0     0     0   -94     0    -8     0   -40     0     0     0   -32   -87   -70     0     0     0     0     0     0   -44   -99   -26     0     0     0   -25   -96   -33   -24     0    -9     0     0     0
     0     0     0     0     0     0     0     0     0     0     0     0     0     0   -16     0   -49   -63     0     0     0     0   -77     0     0     0   -38     0     0     0     0     0     0     0     0     0     0   -13   -23   -48    -9     0     0     0     0
     0     0     0     0     0   -21     0     0     0     0     0     0     0   -51   -61     0     0     0     0     0     0   -13   -24     0     0     0     0   -76   -72     0     0   -16   -80   -20     0     0     0     0     0     0     0     0     0     0     0
     0     0     0    -5     0   -69     0    -7   -80     0     0     0   -76     0     0     0     0     0     0     0   -75     0     0     0   -57   -53   -69     0   -48     0     0     0     0     0     0     0   -29     0     0     0     0     0     0     0     0
     0     0     0     0     0    -5     0     0     0     0   -80     0     0     0     0   -78     0     0     0     0     0     0   -71     0     0     0     0     0   -16     0     0     0     0     0   -67     0   -30     0     0     0     0     0     0     0     0
